p cnf 16 51

-1 -2 0
1 2 0
-1 3 0
-1 4 0
1 -3 -4 0
-2 5 0
-2 4 0
2 -5 -4 0
-3 15 6 7 8 0
3 -15 0
3 -6 0
3 -7 0
3 -8 0
-6 -15 0
-6 14 0
6 15 -14 0
-7 -15 0
-7 -14 0
-7 13 0
7 15 14 -13 0
-8 -15 0
-8 -14 0
-8 -13 0
-8 16 0
8 -16 13 14 15 0
-5 16 15 14 13 0
5 -16 0
5 -15 0
5 -14 0
5 -13 0
-4 9 10 11 12 0
4 -9 0
4 -10 0
4 -11 0
4 -12 0
-9 -15 0
-9 -14 0
-9 -13 0
9 13 14 15 0
-10 -15 0
-10 -14 0
-10 -16 0
10 14 15 16 0
-11 -15 0
-11 -13 0
-11 -16 0
11 15 13 16 0
-12 -14 0
-12 -13 0
-12 -16 0
12 14 13 16 0

